Route #1: 1 56 71 46 113 4 79 40 43 83 99 14 100 10 16 84 59 15 24 80 22 92 1
Route #2 1 33 13 50 3 44 77 114 65 110 9 115 91 36 93 7 41 63 88 73 1
Route #3 1 103 112 35 28 12 57 2 25 38 58 78 101 60 23 5 96 61 69 70 82 54 1
Route #4 1 42 86 90 52 64 105 106 102 48 6 27 118 109 67 47 76 104 18 19 45 1
Route #5 1 29 20 98 8 107 111 75 66 87 49 116 37 34 119 31 68 26 74 32 39 53 1
Route #6 1 21 117 108 55 72 97 62 120 11 95 85 94 17 81 30 89 51 1
Cost: 14129